NAME : mEgtspf.pid27070.gtsp.143061533.tour
COMMENT : Length = 143061533
COMMENT : Found by LKH [Keld Helsgaun] Thu Mar 20 02:01:10 2025
TYPE : TOUR
DIMENSION : 90
TOUR_SECTION
1
3
62
59
60
61
9
17
18
15
16
88
89
90
87
25
26
23
24
34
31
32
33
6
5
66
63
64
65
4
12
13
14
11
2
72
73
74
71
22
19
20
21
7
8
27
28
29
30
75
76
77
78
39
40
41
42
48
49
50
47
46
43
44
45
85
86
83
84
82
79
80
81
51
52
53
54
10
56
57
58
55
36
37
38
35
69
70
67
68
-1
EOF
